78
20
0 20 21 24 25 26 27 28 31 32 35 38 40 44 45 46 47 49 51 52 54 55 56 60 61 62 65 66 68 71 73 74 75 76 77
1 20 21 23 24 26 29 31 33 35 40 41 44 45 47 50 51 52 53 54 56 58 59 60 61 62 63 64 65 66 67 68 71 72 73 74
2 20 24 29 32 34 35 39 40 44 45 46 47 49 50 51 53 54 55 56 57 58 59 60 65 66 71 74 75 77
3 21 23 24 25 26 28 31 32 33 40 42 44 45 46 47 48 50 51 52 53 54 55 56 58 60 62 66 67 69 73 74 75 77
4 20 21 24 29 31 33 34 35 40 44 45 50 51 52 53 54 55 56 58 59 62 64 65 66 67 70 71 73 74 76
5 20 21 22 23 24 26 27 31 32 33 35 37 39 40 46 50 52 53 54 55 56 59 60 62 64 65 66 67 70 71 73 75 76
6 20 21 26 28 29 30 32 33 34 35 37 39 40 42 45 46 49 50 51 53 54 55 56 59 62 64 65 66 67 70 77
7 21 22 23 24 25 27 29 31 32 33 34 36 40 44 46 47 49 50 51 52 54 56 57 59 60 66 67 73 74 75 77
8 20 22 24 25 27 29 32 33 35 37 41 42 44 45 46 50 51 52 53 54 55 58 59 62 64 67 68 71 72 74 75 76
9 20 21 22 29 32 33 35 43 45 46 50 51 52 53 54 56 57 58 59 62 67 70 73 74 75 76 77
10 20 24 27 28 33 34 35 49 53 54 60 65 74 76 77
11 20 22 23 25 27 29 30 31 32 33 45 52 57 58 60 64 66 67 68 75 76 77
12 20 24 29 32 34 35 45 48 49 64 69 71
13 21 23 27 28 34 39 41 43 47 48 51 55 58 60 64 71 73 74
14 20 24 26 28 29 39 43 44 46 50 51 55 61 67 71 76 77
15 22 26 29 32 37 40 45 46 48 49 52 53 61 65 66 69 73
16 34 40 44 45 48 52 54 57 60 66 69 70 72 75 77
17 24 28 43 47 60 62 68
18 25 31 38 55 56 59 61 68 72
19 64
